Solver command line: ['/opt/sw/arch/easybuild/2018b/software/CPLEX/12.9-GCCcore-8.2.0/cplex/bin/x86-64_linux/cplex']


Welcome to IBM(R) ILOG(R) CPLEX(R) Interactive Optimizer 12.9.0.0
  with Simplex, Mixed Integer & Barrier Optimizers
5725-A06 5725-A29 5724-Y48 5724-Y49 5724-Y54 5724-Y55 5655-Y21
Copyright IBM Corp. 1988, 2019.  All Rights Reserved.

Type 'help' for a list of available commands.
Type 'help' followed by a command name for more
information on commands.

CPLEX> Logfile 'cplex.log' closed.
Logfile 'obj_3_2.log' open.
CPLEX> New value for default parallel thread count: 16
CPLEX> Problem '/localscratch/arosati/70372665/tmpl6r41jqy.pyomo.lp' read.
Read time = 0.01 sec. (0.70 ticks)
CPLEX> MIP start file '/localscratch/arosati/70372665/tmpvcm76mg0.cplex.mst' read.
CPLEX> Problem name         : /localscratch/arosati/70372665/tmpl6r41jqy.pyomo.lp
Objective sense      : Minimize
Variables            :    6238  [Nneg: 1,  General Integer: 6237]
Objective nonzeros   :     386
Linear constraints   :    1949  [Less: 1188,  Equal: 761]
  Nonzeros           :   35946
  RHS nonzeros       :     761

Variables            : Min LB: 0.000000         Max UB: 1.000000       
Objective nonzeros   : Min   : 1.000000         Max   : 35.00000       
Linear constraints   :
  Nonzeros           : Min   : 1.000000         Max   : 165.0000       
  RHS nonzeros       : Min   : 1.000000         Max   : 12.00000       
CPLEX> CPXPARAM_Threads                                 16
1 of 1 MIP starts provided solutions.
MIP start 'm1' defined initial solution with objective 70.0000.
Tried aggregator 1 time.
MIP Presolve eliminated 984 rows and 814 columns.
MIP Presolve modified 5085 coefficients.
Reduced MIP has 959 rows, 5424 columns, and 19689 nonzeros.
Reduced MIP has 5424 binaries, 0 generals, 0 SOSs, and 0 indicators.
Presolve time = 0.02 sec. (24.56 ticks)
Probing time = 0.01 sec. (3.69 ticks)
Tried aggregator 1 time.
Reduced MIP has 959 rows, 5424 columns, and 19689 nonzeros.
Reduced MIP has 5424 binaries, 0 generals, 0 SOSs, and 0 indicators.
Presolve time = 0.03 sec. (26.79 ticks)
Probing time = 0.01 sec. (3.62 ticks)
Clique table members: 10364.
MIP emphasis: balance optimality and feasibility.
MIP search method: dynamic search.
Parallel mode: deterministic, using up to 16 threads.
Root relaxation solution time = 0.06 sec. (40.58 ticks)

        Nodes                                         Cuts/
   Node  Left     Objective  IInf  Best Integer    Best Bound    ItCnt     Gap

*     0+    0                           70.0000      -35.0000           150.00%
      0     0        0.0000    79       70.0000        0.0000     1662  100.00%
*     0+    0                           54.0000        0.0000           100.00%
*     0+    0                            7.0000        0.0000           100.00%
      0     0       -0.0000    18        7.0000     Covers: 1     1667  100.00%
*     0+    0                            1.0000        0.0000           100.00%
      0     0        0.0000    42        1.0000      Cuts: 24     1684  100.00%
*     0+    0                            0.0000        0.0000             0.00%
      0     0        cutoff              0.0000        0.0000     1684    0.00%
Elapsed time = 0.43 sec. (273.46 ticks, tree = 0.01 MB, solutions = 5)

Cover cuts applied:  7
Mixed integer rounding cuts applied:  9
Zero-half cuts applied:  4
Gomory fractional cuts applied:  3

Root node processing (before b&c):
  Real time             =    0.43 sec. (273.91 ticks)
Parallel b&c, 16 threads:
  Real time             =    0.00 sec. (0.00 ticks)
  Sync time (average)   =    0.00 sec.
  Wait time (average)   =    0.00 sec.
                          ------------
Total (root+branch&cut) =    0.43 sec. (273.91 ticks)

Solution pool: 5 solutions saved.

MIP - Integer optimal solution:  Objective =  0.0000000000e+00
Solution time =    0.43 sec.  Iterations = 1684  Nodes = 0
Deterministic time = 273.93 ticks  (633.09 ticks/sec)

CPLEX> Incumbent solution written to file '/localscratch/arosati/70372665/tmprmpzx3_7.cplex.sol'.
CPLEX> 
